RT is False
Default write of storage_offers_DA.csv just to have a file (but constraint should be inactive)
Reading model...
...model read.
creating competitive generators file...
...competitive generators recorded.
Loading data...
.. day-ahead data with real-time VRE data read.
Compiling instance...
...instance created.
Creating Offer Mitigation (model will solve as dispatch if TRUE)...
NOTE: storage offers will not be mitigated
...storage offer mitigation file created
Converting model to MPEC...
...converted
NOTE: initial MIP solve with only storage competitive to get feasible solution
Solving...

Welcome to IBM(R) ILOG(R) CPLEX(R) Interactive Optimizer 12.9.0.0
  with Simplex, Mixed Integer & Barrier Optimizers
5725-A06 5725-A29 5724-Y48 5724-Y49 5724-Y54 5724-Y55 5655-Y21
Copyright IBM Corp. 1988, 2019.  All Rights Reserved.

Type 'help' for a list of available commands.
Type 'help' followed by a command name for more
information on commands.

CPLEX> Logfile 'cplex.log' closed.
Logfile 'C:\Users\llavin\Desktop\test826\logs\tmpauhazf2d.cplex.log' open.
CPLEX> New value for parallel optimization mode: -1
CPLEX> New value for mixed integer optimality gap tolerance: 0.02
CPLEX> New value for integrality tolerance: 1e-12
CPLEX> New value for deterministic time limit in ticks: 65000
CPLEX> Problem 'C:\Users\llavin\Desktop\test826\logs\tmp73pmj9b8.pyomo.lp' read.
Read time = 0.19 sec. (13.64 ticks)
CPLEX> Problem name         : C:\Users\llavin\Desktop\test826\logs\tmp73pmj9b8.pyomo.lp
Objective sense      : Maximize
Variables            :   53815  [Nneg: 1,  Box: 22002,  Free: 4464,
                                 Binary: 27348]
Objective nonzeros   :    8980
Linear constraints   :  123235  [Less: 41356,  Greater: 59114,  Equal: 22765]
  Nonzeros           :  292605
  RHS nonzeros       :   67515

Variables            : Min LB: -5000.000        Max UB: 1000000.       
Objective nonzeros   : Min   : 0.3666667        Max   : 834.3917       
Linear constraints   :
  Nonzeros           : Min   : 0.3666667        Max   : 1000000.       
  RHS nonzeros       : Min   : 0.001000000      Max   : 1000000.       
CPLEX> CPXPARAM_Parallel                                -1
CPXPARAM_DetTimeLimit                            65000
CPXPARAM_MIP_Tolerances_MIPGap                   0.02
CPXPARAM_MIP_Tolerances_Integrality              9.9999999999999998e-13
Tried aggregator 3 times.
MIP Presolve eliminated 88619 rows and 18899 columns.
MIP Presolve added 3401 rows and 0 columns.
MIP Presolve modified 24924 coefficients.
Aggregator did 13014 substitutions.
Reduced MIP has 25003 rows, 21346 columns, and 71524 nonzeros.
Reduced MIP has 8432 binaries, 0 generals, 0 SOSs, and 0 indicators.
Presolve time = 0.27 sec. (172.69 ticks)
Probing fixed 390 vars, tightened 4187 bounds.
Probing time = 0.06 sec. (18.82 ticks)
Tried aggregator 2 times.
MIP Presolve eliminated 877 rows and 780 columns.
MIP Presolve modified 3041 coefficients.
Aggregator did 36 substitutions.
Reduced MIP has 24090 rows, 20530 columns, and 68882 nonzeros.
Reduced MIP has 8042 binaries, 0 generals, 0 SOSs, and 0 indicators.
Presolve time = 0.09 sec. (87.85 ticks)
Probing fixed 0 vars, tightened 415 bounds.
Probing time = 0.13 sec. (23.50 ticks)
Clique table members: 44334.
MIP emphasis: balance optimality and feasibility.
MIP search method: dynamic search.
Parallel mode: opportunistic, using up to 32 threads.
Root relaxation solution time = 0.33 sec. (599.61 ticks)

        Nodes                                         Cuts/
   Node  Left     Objective  IInf  Best Integer    Best Bound    ItCnt     Gap

      0     0     3249.9759   101                   3249.9759     5103         
*     0+    0                         3213.8299     3249.9759             1.12%

Root node processing (before b&c):
  Real time             =    1.56 sec. (1278.14 ticks)
Parallel b&c, 32 threads:
  Real time             =    0.00 sec. (0.00 ticks)
  Sync time (average)   =    0.00 sec.
  Wait time (average)   =    0.00 sec.
                          ------------
Total (root+branch&cut) =    1.56 sec. (1278.14 ticks)

Solution pool: 1 solution saved.

MIP - Integer optimal, tolerance (0.02/1e-06):  Objective =  3.2138298631e+03
Current MIP best bound =  3.2499758904e+03 (gap = 36.146, 1.12%)
Solution time =    1.59 sec.  Iterations = 5103  Nodes = 0 (1)
Deterministic time = 1278.30 ticks  (801.94 ticks/sec)

CPLEX> Incumbent solution written to file 'C:\Users\llavin\Desktop\test826\logs\tmpdw6m9n0o.cplex.sol'.
CPLEX> NOTE: no warmstart specified for MIP iteration, default behavior is true
NOTE: resolving with all competitive generators using storage-only solution to warmstart
Solving...

Welcome to IBM(R) ILOG(R) CPLEX(R) Interactive Optimizer 12.9.0.0
  with Simplex, Mixed Integer & Barrier Optimizers
5725-A06 5725-A29 5724-Y48 5724-Y49 5724-Y54 5724-Y55 5655-Y21
Copyright IBM Corp. 1988, 2019.  All Rights Reserved.

Type 'help' for a list of available commands.
Type 'help' followed by a command name for more
information on commands.

CPLEX> Logfile 'cplex.log' closed.
Logfile 'C:\Users\llavin\Desktop\test826\logs\tmp30lc3dng.cplex.log' open.
CPLEX> New value for parallel optimization mode: -1
CPLEX> New value for mixed integer optimality gap tolerance: 0.02
CPLEX> New value for integrality tolerance: 1e-12
CPLEX> New value for deterministic time limit in ticks: 65000
CPLEX> Problem 'C:\Users\llavin\Desktop\test826\logs\tmpkico9wqb.pyomo.lp' read.
Read time = 0.19 sec. (13.66 ticks)
CPLEX> MIP start file 'C:\Users\llavin\Desktop\test826\logs\tmpi8d3gkbu.cplex.mst' read.
CPLEX> Problem name         : C:\Users\llavin\Desktop\test826\logs\tmpkico9wqb.pyomo.lp
Objective sense      : Maximize
Variables            :   54535  [Nneg: 1,  Box: 22722,  Free: 4464,
                                 Binary: 27348]
Objective nonzeros   :    9676
Linear constraints   :  123235  [Less: 41356,  Greater: 59114,  Equal: 22765]
  Nonzeros           :  292605
  RHS nonzeros       :   67515

Variables            : Min LB: -5000.000        Max UB: 1000000.       
Objective nonzeros   : Min   : 0.3666667        Max   : 786.3083       
Linear constraints   :
  Nonzeros           : Min   : 0.3666667        Max   : 1000000.       
  RHS nonzeros       : Min   : 0.001000000      Max   : 1000000.       
CPLEX> CPXPARAM_Parallel                                -1
CPXPARAM_DetTimeLimit                            65000
CPXPARAM_MIP_Tolerances_MIPGap                   0.02
CPXPARAM_MIP_Tolerances_Integrality              9.9999999999999998e-13
Warning:  No solution found from 1 MIP starts.
Retaining values of one MIP start for possible repair.
Tried aggregator 3 times.
MIP Presolve eliminated 88619 rows and 19619 columns.
MIP Presolve added 3401 rows and 0 columns.
MIP Presolve modified 24924 coefficients.
Aggregator did 13014 substitutions.
Reduced MIP has 25003 rows, 21346 columns, and 71524 nonzeros.
Reduced MIP has 8432 binaries, 0 generals, 0 SOSs, and 0 indicators.
Presolve time = 0.28 sec. (173.05 ticks)
Probing fixed 390 vars, tightened 4187 bounds.
Probing time = 0.05 sec. (18.82 ticks)
Tried aggregator 2 times.
MIP Presolve eliminated 877 rows and 780 columns.
MIP Presolve modified 3041 coefficients.
Aggregator did 36 substitutions.
Reduced MIP has 24090 rows, 20530 columns, and 68882 nonzeros.
Reduced MIP has 8042 binaries, 0 generals, 0 SOSs, and 0 indicators.
Presolve time = 0.11 sec. (87.86 ticks)
Probing fixed 0 vars, tightened 415 bounds.
Probing time = 0.13 sec. (23.50 ticks)
Clique table members: 44334.
MIP emphasis: balance optimality and feasibility.
MIP search method: dynamic search.
Parallel mode: opportunistic, using up to 32 threads.
Root relaxation solution time = 0.42 sec. (672.19 ticks)

        Nodes                                         Cuts/
   Node  Left     Objective  IInf  Best Integer    Best Bound    ItCnt     Gap

      0     0   140158.3050   371                 140158.3050     6012         
      0     0   135141.7233   267                   Cuts: 235     6294         
      0     0   134246.1183   237                    Cuts: 71     6374         
      0     0   134009.1467   231                    Cuts: 35     6401         
      0     0   134009.1467   232                 Flowcuts: 3     6404         
      0     0   133986.3752   179                 Flowcuts: 3     6416         
      0     0   133983.0866   182                    Cuts: 12     6425         
Repair heuristic found nothing.
      0     2   133983.0866   182                    Cuts: 10     6425         
Elapsed time = 6.95 sec. (3603.67 ticks, tree = 0.02 MB, solutions = 0)
    344   107   112128.0521   132                 132168.2719     8917         
    865   161   118769.4190   157                 132168.2719     9661         
   1296   533    infeasible                       132168.2719    16746         
   1801   931    47648.4224   109                 132168.2719    39236         
   2524  1529   -10378.8210    26                 132168.2719    62384         
   3219  1472   -11400.6053    35                 132168.2719    61285         
   3785  1807   -71402.9702    57                 132168.2719    68699         
   4322  2162    infeasible                       131477.4723    76376         
   4847  2882    51154.6382   107                 128463.3430   102397         
   6905  3982    49604.4590    96                 117993.4753   148255         
Elapsed time = 23.44 sec. (6708.30 ticks, tree = 44.88 MB, solutions = 0)
   8880  5029    50738.9172    85                 116019.2981   204866         
  10966  6311    infeasible                       115297.6011   290787         
  12993  7474    30287.9768   126                 114380.0732   379799         
  14935  8703     9441.8734    88                 112256.9818   477645         
  17050  9316  -156603.6974    82                 111280.2423   533370         
  19256 10427  -106770.2104   101                 107100.5723   635063         
  21497 11561    infeasible                        85056.4017   732958         
  23924 12884  -709182.1945    80                  63983.6932   845324         
* 25378 12907      integral     0     9815.5929    63955.6718   846636  551.57%
  25953 13348    38084.5470    72     9815.5929    63093.9374   885920  542.79%
  26297  8802    infeasible           9815.5929    37876.5356   963424  285.88%
Elapsed time = 75.53 sec. (19681.77 ticks, tree = 138.06 MB, solutions = 2)
  27015    52    12336.4869    13     9815.5929    23207.0241   966023  136.43%
  27992   279        cutoff           9815.5929    23185.4775   968969  136.21%
  29040   851        cutoff           9815.5929    22525.3379   982137  129.49%
  30081   821    12959.2539    40     9815.5929    22506.0012   980130  129.29%
  31436   968    14880.8527    26     9815.5929    21036.8980   983221  114.32%
  32862  1579    14090.2981    17     9815.5929    18853.3292   990885   92.08%
  34161  2037    10936.2094    25     9815.5929    18462.5445   994139   88.09%
  35436  3587    15054.3654    26     9815.5929    15507.8289  1004879   57.99%
  36764  3606    14988.7535    17     9815.5929    15507.8289  1004751   57.99%
  38458  4073    infeasible           9815.5929    15507.8289  1007299   57.99%
Elapsed time = 170.52 sec. (29227.50 ticks, tree = 27.71 MB, solutions = 2)
  39819  5037    14880.8527    15     9815.5929    15267.3893  1013243   55.54%
  40817  6408    15047.9167    17     9815.5929    15267.3893  1020661   55.54%
  41848  8103    10932.0113    14     9815.5929    15261.3523  1028523   55.48%
  42829 10383    10512.7974     8     9815.5929    15261.3523  1035675   55.48%
  43660  8900    14960.6152    15     9815.5929    15261.3523  1030941   55.48%
  44585  8720    14035.2236    15     9815.5929    15261.3523  1030504   55.48%
  45487  9195    10816.8687    14     9815.5929    15261.3523  1031791   55.48%
  46473 10653    10630.2765    15     9815.5929    15261.3523  1036767   55.48%
  47517 11337    10816.8687    16     9815.5929    15091.4053  1039356   53.75%
  48582 10520    10695.6181    15     9815.5929    15091.4053  1036254   53.75%
Elapsed time = 267.03 sec. (38774.07 ticks, tree = 80.57 MB, solutions = 2)
  49650 11468    14090.3252    16     9815.5929    15091.4053  1039718   53.75%
  50634 11974    14035.2236    16     9815.5929    15066.9572  1041601   53.50%
  51491 12002    10789.1436    15     9815.5929    15060.9202  1041669   53.44%
  52274 13855    10885.5652    20     9815.5929    15057.0234  1047974   53.40%
  53064 13653    10695.6181    17     9815.5929    15057.0234  1047267   53.40%
  53928 14630    10889.1694    19     9815.5929    15055.4480  1051139   53.38%
  54734 13527    14954.1643    16     9815.5929    15055.4480  1046693   53.38%
  55563 15845    infeasible           9815.5929    15055.4480  1055507   53.38%
  56324 16074    10647.2191    12     9815.5929    15055.4480  1056299   53.38%
  57038 16834    10730.2112    14     9815.5929    15055.4480  1058806   53.38%
Elapsed time = 360.92 sec. (48317.04 ticks, tree = 132.39 MB, solutions = 2)
  57856 15558    14763.4135    13     9815.5929    15055.4480  1054485   53.38%
  58804 18641    10868.0752    12     9815.5929    15055.4480  1064332   53.38%
  59688 18669    14960.6136    17     9815.5929    15055.4480  1064404   53.38%
  60508 17247    14834.4067    10     9815.5929    15055.4480  1060027   53.38%
  61254 19462    14815.8965    18     9815.5929    15055.4480  1066802   53.38%
  62017 19770    14062.9486    16     9815.5929    15055.4480  1067761   53.38%
  62770 19517    10671.7872    11     9815.5929    15055.4480  1066956   53.38%
  63463 17918    14988.7535    19     9815.5929    15055.4480  1062141   53.38%
  64102 18286    12870.3313    11     9815.5929    15055.4480  1063180   53.38%
  64701 19241    14022.5395    11     9815.5929    15055.4480  1066289   53.38%
Elapsed time = 399.20 sec. (57863.40 ticks, tree = 152.74 MB, solutions = 2)
  65201 21092    14988.7535    27     9815.5929    15055.4480  1072205   53.38%
  65685 20395    14988.7535    19     9815.5929    15055.4480  1069558   53.38%
  66115 19638    14239.6735    21     9815.5929    15055.4480  1067380   53.38%
  66542 19651    10616.8809     9     9815.5929    15055.4480  1067494   53.38%
  66953 20747    10914.5212    15     9815.5929    15055.4480  1070589   53.38%
  67199 20843    10695.6181    16     9815.5929    15055.4480  1071261   53.38%
  67414 19761    10895.8003     6     9815.5929    15055.4480  1067726   53.38%

Cover cuts applied:  43
Implied bound cuts applied:  57
Flow cuts applied:  101
Mixed integer rounding cuts applied:  8
Gomory fractional cuts applied:  3

Root node processing (before b&c):
  Real time             =    4.84 sec. (3545.52 ticks)
Parallel b&c, 32 threads:
  Real time             =  401.97 sec. (61482.56 ticks)
  Sync time (average)   =    3.81 sec.
  Wait time (average)   =    0.16 sec.
                          ------------
Total (root+branch&cut) =  406.81 sec. (65028.08 ticks)

Solution pool: 2 solutions saved.

MIP - Deterministic time limit exceeded, integer feasible:  Objective =  9.8155928524e+03
Current MIP best bound =  1.5055031337e+04 (gap = 5239.44, 53.38%)
Solution time =  406.83 sec.  Iterations = 1104231  Nodes = 67432 (30164)
Deterministic time = 65028.24 ticks  (159.84 ticks/sec)

CPLEX> Incumbent solution written to file 'C:\Users\llavin\Desktop\test826\logs\tmpv83tzc0k.cplex.sol'.
CPLEX> Exporting results... 
